% Logging successfully configured
%%%mzn-stat: initTime=0.003299474
%%%mzn-stat: objective=708
%%%mzn-stat: nodes=147
%%%mzn-stat: restarts=0
%%%mzn-stat: peakDepth=145
%%%mzn-stat: solveTime=0.000782661
%%%mzn-stat: variables=326
%%%mzn-stat: propagators=218
%%%mzn-stat: failures=2
%%%mzn-stat: propagations=768
%%%mzn-stat: nogoods=2
%%%mzn-stat: numAtomicConstraintsPropagated=0
%%%mzn-stat: allDifferentNumber1PropagationsTotal=29
%%%mzn-stat: allDifferentNumber1PropagationsThatFoundConflict=0
%%%mzn-stat: allDifferentNumber1PropagationsThatPruned=15
%%%mzn-stat: allDifferentNumber1TotalValuesPruned=78
%%%mzn-stat: allDifferentNumber1TotalHallSetSizeConflict=0
%%%mzn-stat: allDifferentNumber1NumberOfConflicts=0
%%%mzn-stat: allDifferentNumber1MaxHallSetSizeConflict=0
%%%mzn-stat: allDifferentNumber1TotalPruningHallSetSize=168
%%%mzn-stat: allDifferentNumber1NumberOfPruningExplanations=78
%%%mzn-stat: allDifferentNumber1MaxPruningHallSetSize=15
%%%mzn-stat: allDifferentNumber1TotalFixedEdgesAtConflict=0
%%%mzn-stat: allDifferentNumber1TotalVarsInvolvedInPruning=63
%%%mzn-stat: allDifferentNumber1MaxValuesPrunedFromSingleVar=5
%%%mzn-stat: allDifferentNumber1TotalSccSizeAtPruning=57
%%%mzn-stat: allDifferentNumber1NumberOfSccPruningCalls=15
%%%mzn-stat: circuitNumber2PropagationsThatFoundConflict=2
%%%mzn-stat: circuitNumber2TotalFixedEdgesAtConflict=34
%%%mzn-stat: circuitNumber2NumberOfConflicts=2
%%%mzn-stat: circuitNumber2PropagationsThatPruned=1
%%%mzn-stat: circuitNumber2PropagationsTotal=16
%%%mzn-stat: AverageConflictSize=4
%%%mzn-stat: NumUnitNogoodsLearned=0
%%%mzn-stat: AverageLearnedNogoodLength=6
%%%mzn-stat: AverageBacktrackAmount=0
%%%mzn-stat: AverageLbd=3
%%%mzn-stat: 2AutonomousSearchNumBackupCalled=133
%%%mzn-stat: 2AutonomousSearchNumPredicatesRemoved=0
%%%mzn-stat: 2AutonomousSearchNumCalls=134
%%%mzn-stat: 2AutonomousSearchNumPredicatesAdded=29
%%%mzn-stat: 2AutonomousSearchAverageSizeOfHeap=0.21641791044776118
%%%mzn-stat: 2AutonomousSearchNumAssignedPredicatesEncountered=29
%%%mzn-stat-end
maxleg = 708;
succ = array1d(1..20,[2, 3, 7, 1, 4, 12, 6, 13, 10, 17, 9, 19, 15, 11, 20, 5, 16, 14, 8, 18]);
% time elapsed: 1.47 s
----------
%%%mzn-stat: initTime=0.003299474
%%%mzn-stat: objective=472
%%%mzn-stat: nodes=280
%%%mzn-stat: restarts=0
%%%mzn-stat: peakDepth=145
%%%mzn-stat: solveTime=0.001213156
%%%mzn-stat: variables=326
%%%mzn-stat: propagators=218
%%%mzn-stat: failures=2
%%%mzn-stat: propagations=1149
%%%mzn-stat: nogoods=2
%%%mzn-stat: numAtomicConstraintsPropagated=0
%%%mzn-stat: allDifferentNumber1PropagationsTotal=53
%%%mzn-stat: allDifferentNumber1PropagationsThatFoundConflict=0
%%%mzn-stat: allDifferentNumber1PropagationsThatPruned=27
%%%mzn-stat: allDifferentNumber1TotalValuesPruned=147
%%%mzn-stat: allDifferentNumber1TotalHallSetSizeConflict=0
%%%mzn-stat: allDifferentNumber1NumberOfConflicts=0
%%%mzn-stat: allDifferentNumber1MaxHallSetSizeConflict=0
%%%mzn-stat: allDifferentNumber1TotalPruningHallSetSize=349
%%%mzn-stat: allDifferentNumber1NumberOfPruningExplanations=147
%%%mzn-stat: allDifferentNumber1MaxPruningHallSetSize=15
%%%mzn-stat: allDifferentNumber1TotalFixedEdgesAtConflict=0
%%%mzn-stat: allDifferentNumber1TotalVarsInvolvedInPruning=120
%%%mzn-stat: allDifferentNumber1MaxValuesPrunedFromSingleVar=5
%%%mzn-stat: allDifferentNumber1TotalSccSizeAtPruning=110
%%%mzn-stat: allDifferentNumber1NumberOfSccPruningCalls=27
%%%mzn-stat: circuitNumber2PropagationsThatFoundConflict=2
%%%mzn-stat: circuitNumber2TotalFixedEdgesAtConflict=34
%%%mzn-stat: circuitNumber2NumberOfConflicts=2
%%%mzn-stat: circuitNumber2PropagationsThatPruned=1
%%%mzn-stat: circuitNumber2PropagationsTotal=28
%%%mzn-stat: AverageConflictSize=4
%%%mzn-stat: NumUnitNogoodsLearned=0
%%%mzn-stat: AverageLearnedNogoodLength=6
%%%mzn-stat: AverageBacktrackAmount=0
%%%mzn-stat: AverageLbd=3
%%%mzn-stat: 2AutonomousSearchNumBackupCalled=254
%%%mzn-stat: 2AutonomousSearchNumPredicatesRemoved=0
%%%mzn-stat: 2AutonomousSearchNumCalls=256
%%%mzn-stat: 2AutonomousSearchNumPredicatesAdded=29
%%%mzn-stat: 2AutonomousSearchAverageSizeOfHeap=0.2265625
%%%mzn-stat: 2AutonomousSearchNumAssignedPredicatesEncountered=58
%%%mzn-stat-end
maxleg = 472;
succ = array1d(1..20,[2, 3, 7, 1, 4, 12, 6, 13, 11, 9, 14, 19, 10, 18, 8, 5, 16, 17, 20, 15]);
% time elapsed: 1.47 s
----------
%%%mzn-stat: initTime=0.003299474
%%%mzn-stat: objective=465
%%%mzn-stat: nodes=410
%%%mzn-stat: restarts=0
%%%mzn-stat: peakDepth=145
%%%mzn-stat: solveTime=0.003050664
%%%mzn-stat: variables=326
%%%mzn-stat: propagators=218
%%%mzn-stat: failures=10
%%%mzn-stat: propagations=1881
%%%mzn-stat: nogoods=10
%%%mzn-stat: numAtomicConstraintsPropagated=0
%%%mzn-stat: allDifferentNumber1PropagationsTotal=126
%%%mzn-stat: allDifferentNumber1PropagationsThatFoundConflict=0
%%%mzn-stat: allDifferentNumber1PropagationsThatPruned=71
%%%mzn-stat: allDifferentNumber1TotalValuesPruned=272
%%%mzn-stat: allDifferentNumber1TotalHallSetSizeConflict=0
%%%mzn-stat: allDifferentNumber1NumberOfConflicts=0
%%%mzn-stat: allDifferentNumber1MaxHallSetSizeConflict=0
%%%mzn-stat: allDifferentNumber1TotalPruningHallSetSize=695
%%%mzn-stat: allDifferentNumber1NumberOfPruningExplanations=272
%%%mzn-stat: allDifferentNumber1MaxPruningHallSetSize=15
%%%mzn-stat: allDifferentNumber1TotalFixedEdgesAtConflict=0
%%%mzn-stat: allDifferentNumber1TotalVarsInvolvedInPruning=224
%%%mzn-stat: allDifferentNumber1MaxValuesPrunedFromSingleVar=5
%%%mzn-stat: allDifferentNumber1TotalSccSizeAtPruning=280
%%%mzn-stat: allDifferentNumber1NumberOfSccPruningCalls=71
%%%mzn-stat: circuitNumber2PropagationsThatFoundConflict=10
%%%mzn-stat: circuitNumber2TotalFixedEdgesAtConflict=167
%%%mzn-stat: circuitNumber2NumberOfConflicts=10
%%%mzn-stat: circuitNumber2PropagationsThatPruned=15
%%%mzn-stat: circuitNumber2PropagationsTotal=72
%%%mzn-stat: AverageConflictSize=8
%%%mzn-stat: NumUnitNogoodsLearned=0
%%%mzn-stat: AverageLearnedNogoodLength=12.9
%%%mzn-stat: AverageBacktrackAmount=0
%%%mzn-stat: AverageLbd=5.8
%%%mzn-stat: 2AutonomousSearchNumBackupCalled=363
%%%mzn-stat: 2AutonomousSearchNumPredicatesRemoved=0
%%%mzn-stat: 2AutonomousSearchNumCalls=366
%%%mzn-stat: 2AutonomousSearchNumPredicatesAdded=194
%%%mzn-stat: 2AutonomousSearchAverageSizeOfHeap=0.6174863387978142
%%%mzn-stat: 2AutonomousSearchNumAssignedPredicatesEncountered=226
%%%mzn-stat-end
maxleg = 465;
succ = array1d(1..20,[2, 3, 7, 1, 4, 19, 12, 13, 11, 9, 14, 6, 10, 18, 8, 5, 16, 17, 20, 15]);
% time elapsed: 1.47 s
----------
%%%mzn-stat: initTime=0.003299474
%%%mzn-stat: objective=437
%%%mzn-stat: nodes=524
%%%mzn-stat: restarts=0
%%%mzn-stat: peakDepth=145
%%%mzn-stat: solveTime=0.003513525
%%%mzn-stat: variables=326
%%%mzn-stat: propagators=218
%%%mzn-stat: failures=10
%%%mzn-stat: propagations=2282
%%%mzn-stat: nogoods=10
%%%mzn-stat: numAtomicConstraintsPropagated=0
%%%mzn-stat: allDifferentNumber1PropagationsTotal=150
%%%mzn-stat: allDifferentNumber1PropagationsThatFoundConflict=0
%%%mzn-stat: allDifferentNumber1PropagationsThatPruned=86
%%%mzn-stat: allDifferentNumber1TotalValuesPruned=329
%%%mzn-stat: allDifferentNumber1TotalHallSetSizeConflict=0
%%%mzn-stat: allDifferentNumber1NumberOfConflicts=0
%%%mzn-stat: allDifferentNumber1MaxHallSetSizeConflict=0
%%%mzn-stat: allDifferentNumber1TotalPruningHallSetSize=869
%%%mzn-stat: allDifferentNumber1NumberOfPruningExplanations=329
%%%mzn-stat: allDifferentNumber1MaxPruningHallSetSize=15
%%%mzn-stat: allDifferentNumber1TotalFixedEdgesAtConflict=0
%%%mzn-stat: allDifferentNumber1TotalVarsInvolvedInPruning=272
%%%mzn-stat: allDifferentNumber1MaxValuesPrunedFromSingleVar=5
%%%mzn-stat: allDifferentNumber1TotalSccSizeAtPruning=360
%%%mzn-stat: allDifferentNumber1NumberOfSccPruningCalls=86
%%%mzn-stat: circuitNumber2PropagationsThatFoundConflict=10
%%%mzn-stat: circuitNumber2TotalFixedEdgesAtConflict=167
%%%mzn-stat: circuitNumber2NumberOfConflicts=10
%%%mzn-stat: circuitNumber2PropagationsThatPruned=18
%%%mzn-stat: circuitNumber2PropagationsTotal=86
%%%mzn-stat: AverageConflictSize=8
%%%mzn-stat: NumUnitNogoodsLearned=0
%%%mzn-stat: AverageLearnedNogoodLength=12.9
%%%mzn-stat: AverageBacktrackAmount=0
%%%mzn-stat: AverageLbd=5.8
%%%mzn-stat: 2AutonomousSearchNumBackupCalled=468
%%%mzn-stat: 2AutonomousSearchNumPredicatesRemoved=0
%%%mzn-stat: 2AutonomousSearchNumCalls=472
%%%mzn-stat: 2AutonomousSearchNumPredicatesAdded=194
%%%mzn-stat: 2AutonomousSearchAverageSizeOfHeap=0.8347457627118644
%%%mzn-stat: 2AutonomousSearchNumAssignedPredicatesEncountered=394
%%%mzn-stat-end
maxleg = 437;
succ = array1d(1..20,[2, 3, 7, 1, 4, 19, 12, 15, 11, 9, 14, 6, 10, 18, 13, 5, 16, 17, 20, 8]);
% time elapsed: 1.47 s
----------
==========
% time elapsed: 1.47 s
%%%mzn-stat: initTime=0.003299474
%%%mzn-stat: objective=437
%%%mzn-stat: nodes=524
%%%mzn-stat: restarts=0
%%%mzn-stat: peakDepth=145
%%%mzn-stat: solveTime=0.003663383
%%%mzn-stat: variables=326
%%%mzn-stat: propagators=218
%%%mzn-stat: failures=11
%%%mzn-stat: propagations=2356
%%%mzn-stat: nogoods=11
%%%mzn-stat: numAtomicConstraintsPropagated=0
%%%mzn-stat: allDifferentNumber1PropagationsTotal=151
%%%mzn-stat: allDifferentNumber1PropagationsThatFoundConflict=0
%%%mzn-stat: allDifferentNumber1PropagationsThatPruned=87
%%%mzn-stat: allDifferentNumber1TotalValuesPruned=337
%%%mzn-stat: allDifferentNumber1TotalHallSetSizeConflict=0
%%%mzn-stat: allDifferentNumber1NumberOfConflicts=0
%%%mzn-stat: allDifferentNumber1MaxHallSetSizeConflict=0
%%%mzn-stat: allDifferentNumber1TotalPruningHallSetSize=949
%%%mzn-stat: allDifferentNumber1NumberOfPruningExplanations=337
%%%mzn-stat: allDifferentNumber1MaxPruningHallSetSize=19
%%%mzn-stat: allDifferentNumber1TotalFixedEdgesAtConflict=0
%%%mzn-stat: allDifferentNumber1TotalVarsInvolvedInPruning=277
%%%mzn-stat: allDifferentNumber1MaxValuesPrunedFromSingleVar=5
%%%mzn-stat: allDifferentNumber1TotalSccSizeAtPruning=397
%%%mzn-stat: allDifferentNumber1NumberOfSccPruningCalls=87
%%%mzn-stat: circuitNumber2PropagationsThatFoundConflict=11
%%%mzn-stat: circuitNumber2TotalFixedEdgesAtConflict=169
%%%mzn-stat: circuitNumber2NumberOfConflicts=11
%%%mzn-stat: circuitNumber2PropagationsThatPruned=18
%%%mzn-stat: circuitNumber2PropagationsTotal=87
%%%mzn-stat: AverageConflictSize=7.454545454545454
%%%mzn-stat: NumUnitNogoodsLearned=1
%%%mzn-stat: AverageLearnedNogoodLength=11.818181818181818
%%%mzn-stat: AverageBacktrackAmount=0
%%%mzn-stat: AverageLbd=5.363636363636363
%%%mzn-stat: 2AutonomousSearchNumBackupCalled=468
%%%mzn-stat: 2AutonomousSearchNumPredicatesRemoved=0
%%%mzn-stat: 2AutonomousSearchNumCalls=472
%%%mzn-stat: 2AutonomousSearchNumPredicatesAdded=315
%%%mzn-stat: 2AutonomousSearchAverageSizeOfHeap=0.8347457627118644
%%%mzn-stat: 2AutonomousSearchNumAssignedPredicatesEncountered=394
%%%mzn-stat-end
